c Generated map
c Size: 8 * 8, weights in range: 1 to 10, walls: True, with ratio 0.05
c dim 3 of 8
c
p sp 64 100
c graph contains 64 nodes and 100 arcs
c
a 1 9 5
a 9 1 5
a 1 2 10
a 2 1 10
a 2 10 3
a 10 2 3
a 2 3 9
a 3 2 9
a 3 11 10
a 11 3 10
a 3 4 8
a 4 3 8
a 4 12 8
a 12 4 8
a 4 5 1
a 5 4 1
a 5 13 1
a 13 5 1
a 5 6 8
a 6 5 8
a 6 14 3
a 14 6 3
a 6 7 9
a 7 6 9
a 7 15 2
a 15 7 2
a 7 8 5
a 8 7 5
a 8 16 8
a 16 8 8
a 9 17 6
a 17 9 6
a 9 10 1
a 10 9 1
a 10 18 1
a 18 10 1
a 10 11 2
a 11 10 2
a 11 19 6
a 19 11 6
a 11 12 4
a 12 11 4
a 12 20 1
a 20 12 1
a 12 13 4
a 13 12 4
a 13 21 5
a 21 13 5
a 13 14 9
a 14 13 9
a 14 22 2
a 22 14 2
a 14 15 3
a 15 14 3
a 15 23 3
a 23 15 3
a 15 16 8
a 16 15 8
a 16 24 5
a 24 16 5
a 17 25 8
a 25 17 8
a 17 18 7
a 18 17 7
a 18 26 7
a 26 18 7
a 18 19 3
a 19 18 3
a 19 20 7
a 20 19 7
a 20 28 7
a 28 20 7
a 20 21 3
a 21 20 3
a 21 29 5
a 29 21 5
a 21 22 6
a 22 21 6
a 22 30 8
a 30 22 8
a 22 23 7
a 23 22 7
a 23 31 3
a 31 23 3
a 23 24 5
a 24 23 5
a 24 32 1
a 32 24 1
a 25 33 5
a 33 25 5
a 25 26 7
a 26 25 7
a 26 34 10
a 34 26 10
a 28 36 7
a 36 28 7
a 28 29 7
a 29 28 7
a 29 37 3
a 37 29 3
a 29 30 2
a 30 29 2
a 30 38 4
a 38 30 4
a 30 31 5
a 31 30 5
a 31 39 4
a 39 31 4
a 31 32 7
a 32 31 7
a 32 40 7
a 40 32 7
a 33 41 5
a 41 33 5
a 33 34 3
a 34 33 3
a 34 42 10
a 42 34 10
a 34 35 4
a 35 34 4
a 35 43 9
a 43 35 9
a 35 36 6
a 36 35 6
a 36 44 7
a 44 36 7
a 36 37 6
a 37 36 6
a 37 45 2
a 45 37 2
a 37 38 2
a 38 37 2
a 38 46 8
a 46 38 8
a 38 39 2
a 39 38 2
a 39 40 7
a 40 39 7
a 40 48 8
a 48 40 8
a 41 49 3
a 49 41 3
a 41 42 3
a 42 41 3
a 42 50 8
a 50 42 8
a 42 43 10
a 43 42 10
a 43 51 10
a 51 43 10
a 43 44 5
a 44 43 5
a 44 52 6
a 52 44 6
a 44 45 9
a 45 44 9
a 45 46 3
a 46 45 3
a 46 54 3
a 54 46 3
a 48 56 6
a 56 48 6
a 49 57 6
a 57 49 6
a 49 50 9
a 50 49 9
a 50 58 4
a 58 50 4
a 50 51 4
a 51 50 4
a 51 59 8
a 59 51 8
a 51 52 6
a 52 51 6
a 52 60 4
a 60 52 4
a 54 62 10
a 62 54 10
a 54 55 3
a 55 54 3
a 55 63 7
a 63 55 7
a 55 56 3
a 56 55 3
a 56 64 5
a 64 56 5
a 57 58 6
a 58 57 6
a 58 59 8
a 59 58 8
a 59 60 8
a 60 59 8
a 60 61 6
a 61 60 6
a 61 62 9
a 62 61 9
a 62 63 8
a 63 62 8
a 63 64 3
a 64 63 3
